param s := 4;
param d := 3;
param t := 5;
param n := 10;
param c := 1 0.1 2 0.25 3 0.5 4 0.75 5 1;
param theta0 := 12;
param theta1 := 3;
param theta2 := 1;
param theta3 := 1;
param theta4 := 3;
param theta5 := 2;
param theta6 := 3;
param theta7 := 0.25;


param a:1 2 3:=
	1	1 1 1
	2	1 1 1
	3	1 1 1
	4	1 1 1;
	
param w :=
(1,1,*) 1 5  2 4  3 3  4 2 5 1
(1,2,*) 1 5  2 4  3 3  4 2 5 1
(1,3,*) 1 5  2 4  3 3  4 2 5 1
(2,1,*) 1 5  2 4  3 3  4 2 5 1
(2,2,*) 1 5  2 4  3 3  4 2 5 1
(2,3,*) 1 5  2 4  3 3  4 2 5 1
(3,1,*) 1 5  2 4  3 3  4 2 5 1
(3,2,*) 1 5  2 4  3 3  4 2 5 1
(3,3,*) 1 5  2 4  3 3  4 2 5 1
(4,1,*) 1 5  2 4  3 3  4 2 5 1
(4,2,*) 1 5  2 4  3 3  4 2 5 1
(4,3,*) 1 5  2 4  3 3  4 2 5 1
;
